unsat
(forall ((A (_ BitVec 21))
         (B (_ BitVec 21))
         (C (_ BitVec 21))
         (D (_ BitVec 21))
         (E (_ BitVec 21))
         (F (_ BitVec 1))
         (G (_ BitVec 21))
         (H (_ BitVec 26))
         (I (_ BitVec 21))
         (J (_ BitVec 21))
         (K (_ BitVec 21))
         (L (_ BitVec 21))
         (M (_ BitVec 21))
         (N (_ BitVec 35))
         (O (_ BitVec 35))
         (P (_ BitVec 21))
         (Q (_ BitVec 1))
         (R (_ BitVec 21))
         (S (_ BitVec 9))
         (T (_ BitVec 23))
         (U (_ BitVec 40))
         (V (_ BitVec 23))
         (W (_ BitVec 1))
         (X (_ BitVec 1))
         (Y (_ BitVec 10))
         (Z (_ BitVec 1))
         (A1 (_ BitVec 21))
         (B1 (_ BitVec 35))
         (C1 (_ BitVec 14))
         (D1 (_ BitVec 21))
         (E1 (_ BitVec 1))
         (F1 (_ BitVec 21))
         (G1 (_ BitVec 21))
         (H1 (_ BitVec 21))
         (I1 (_ BitVec 21))
         (J1 (_ BitVec 21))
         (K1 (_ BitVec 35))
         (L1 (_ BitVec 14))
         (M1 (_ BitVec 21))
         (N1 (_ BitVec 1))
         (O1 (_ BitVec 1))
         (P1 (_ BitVec 40))
         (Q1 (_ BitVec 21))
         (R1 (_ BitVec 21))
         (S1 (_ BitVec 21))
         (T1 (_ BitVec 23))
         (U1 (_ BitVec 10))
         (V1 (_ BitVec 23))
         (W1 (_ BitVec 10))
         (X1 (_ BitVec 23))
         (Y1 (_ BitVec 14))
         (Z1 (_ BitVec 21))
         (A2 (_ BitVec 40))
         (B2 (_ BitVec 21))
         (C2 (_ BitVec 13))
         (D2 (_ BitVec 13))
         (E2 (_ BitVec 24))
         (F2 (_ BitVec 24))
         (G2 (_ BitVec 14))
         (H2 (_ BitVec 24))
         (I2 (_ BitVec 1))
         (J2 (_ BitVec 40))
         (K2 (_ BitVec 24))
         (L2 (_ BitVec 1)))
  (! (let ((a!1 (or (not (= N1 #b0))
                    (= (bvmul #b111111111111111111111111111 (concat #x0 X1))
                       ((_ extract 34 8) N))))
           (a!2 (= ((_ extract 28 2)
                     (bvadd ((_ extract 34 6) K1) (concat #b000000 V1)))
                   #b000000000000000000000000000))
           (a!3 (or (not (= N1 #b0))
                    (= (bvmul #b11 ((_ extract 1 0) V1)) ((_ extract 7 6) K1))))
           (a!4 (and (= ((_ extract 7 6) N) #b00)
                     (= ((_ extract 34 8) N)
                        (bvmul #b111111111111111111111111111 (concat #x0 X1)))))
           (a!5 (= ((_ extract 3 2)
                     (bvadd (concat #x00 T1) ((_ extract 34 4) O)))
                   #b00))
           (a!6 (= ((_ extract 30 4)
                     (bvadd (concat #x00 T1) ((_ extract 34 4) O)))
                   #b000000000000000000000000000))
           (a!7 (or ((_ bit2bool 0) M1)
                    (not (= F #b1))
                    (not ((_ bit2bool 20) M1))
                    (= ((_ extract 1 1) Z1) #b1)
                    (= ((_ extract 2 2) (bvmul #b111111111111111111111 M1)) #b1)))
           (a!8 (or (not (= N1 #b1))
                    (= ((_ extract 7 6) K1) (bvmul #b11 ((_ extract 1 0) V1)))))
           (a!9 ((_ extract 5 4)
                  (bvadd (concat #b000 ((_ extract 22 2) V)) (concat #b0 T))))
           (a!10 (or (not (= F #b1))
                     (not (= ((_ extract 1 1) M1) #b1))
                     (not (= ((_ extract 1 0) Z1) #b00))))
           (a!11 ((_ extract 23 2)
                   (bvadd (concat #b000 ((_ extract 22 2) V)) (concat #b0 T))))
           (a!13 ((_ extract 23 6)
                   (bvadd (concat #b000 ((_ extract 22 2) V)) (concat #b0 T)))))
     (let ((a!12 (= ((_ extract 30 4)
                      (bvadd (concat #b000000000 a!11) (concat #b0000000000 M)))
                    #b000000000000000000000000000)))
     (let ((a!14 (and (not ((_ bit2bool 1) Y))
                      (= ((_ extract 34 6) B1) #b00000000000000000000000000000)
                      (not ((_ bit2bool 1) W1))
                      (not ((_ bit2bool 3) U1))
                      (not ((_ bit2bool 2) U1))
                      (not ((_ bit2bool 1) U1))
                      (not ((_ bit2bool 0) U1))
                      (or (= F #b0) (not (= Z #b1)))
                      (or (= F #b0)
                          ((_ bit2bool 2) C1)
                          ((_ bit2bool 10) Y1)
                          (not ((_ bit2bool 2) Y1)))
                      a!1
                      (or (= F #b0)
                          ((_ bit2bool 0) C1)
                          (not ((_ bit2bool 0) Y1)))
                      (or (= F #b0)
                          ((_ bit2bool 1) C1)
                          ((_ bit2bool 10) Y1)
                          (not ((_ bit2bool 1) Y1)))
                      (or (not (= N1 #b1))
                          ((_ bit2bool 2) Y1)
                          ((_ bit2bool 10) Y1)
                          (not ((_ bit2bool 2) C1)))
                      (or (not (= F #b1))
                          ((_ bit2bool 1) C1)
                          ((_ bit2bool 1) Y1)
                          (not ((_ bit2bool 0) Y1))
                          (not ((_ bit2bool 13) Y1)))
                      (or (not (= F #b1)) (not (= N1 #b0)))
                      (or (not (= Z #b0))
                          (not (= N1 #b0))
                          (= ((_ extract 7 6) N) #b00))
                      (or (not ((_ bit2bool 0) W1)) (not (= N1 #b0)))
                      (or (not (= N1 #b0)) a!2)
                      a!3
                      (or (not (= N1 #b1)) a!4)
                      (not ((_ bit2bool 5) Y))
                      a!5
                      a!6
                      a!7
                      (or (not ((_ bit2bool 0) W1)) (not (= N1 #b1)))
                      (or (not (= F #b1))
                          ((_ bit2bool 2) Z1)
                          (not (= M1 #b111111111111111111010)))
                      a!8
                      (not ((_ bit2bool 4) Y))
                      (or (not (= Z #b1)) (= ((_ extract 7 6) N) #b00))
                      (or (not (= N1 #b1))
                          ((_ bit2bool 1) Y1)
                          ((_ bit2bool 10) Y1)
                          (not ((_ bit2bool 1) C1)))
                      (or (not (= N1 #b1)) a!2)
                      (= ((_ extract 34 8) N) #b000000000000000000000000000)
                      (or ((_ bit2bool 0) Y1)
                          (not (= N1 #b1))
                          (not ((_ bit2bool 0) C1)))
                      (or (not (= F #b1)) (not ((_ bit2bool 0) H)))
                      (not ((_ bit2bool 3) Y))
                      (= a!9 #b00)
                      a!10
                      a!12
                      (= a!13 #b000000000000000000)
                      (not ((_ bit2bool 0) Y))
                      (not ((_ bit2bool 2) Y)))))
       (= (INV!slice!1 A
                       B
                       C
                       D
                       E
                       F
                       G
                       H
                       I
                       J
                       K
                       L
                       M
                       N
                       O
                       P
                       Q
                       R
                       S
                       T
                       U
                       V
                       W
                       X
                       Y
                       Z
                       A1
                       B1
                       C1
                       D1
                       E1
                       F1
                       G1
                       H1
                       I1
                       J1
                       K1
                       L1
                       M1
                       N1
                       O1
                       P1
                       Q1
                       R1
                       S1
                       T1
                       U1
                       V1
                       W1
                       X1
                       Y1
                       Z1
                       A2
                       B2
                       C2
                       D2
                       E2
                       F2
                       G2
                       H2
                       I2
                       J2
                       K2
                       L2)
          a!14))))
     :weight 0))
